************************************************************************
file with basedata            : cn345_.bas
initial value random generator: 1719839453
************************************************************************
projects                      :  1
jobs (incl. supersource/sink ):  18
horizon                       :  116
RESOURCES
  - renewable                 :  2   R
  - nonrenewable              :  3   N
  - doubly constrained        :  0   D
************************************************************************
PROJECT INFORMATION:
pronr.  #jobs rel.date duedate tardcost  MPM-Time
    1     16      0       19        0       19
************************************************************************
PRECEDENCE RELATIONS:
jobnr.    #modes  #successors   successors
   1        1          3           2   3   4
   2        3          3           6   9  13
   3        3          3          10  11  17
   4        3          3           5   6  11
   5        3          3           7   8  12
   6        3          1          12
   7        3          3          10  14  17
   8        3          1          14
   9        3          3          10  15  17
  10        3          1          16
  11        3          2          13  15
  12        3          2          15  16
  13        3          1          14
  14        3          1          16
  15        3          1          18
  16        3          1          18
  17        3          1          18
  18        1          0        
************************************************************************
REQUESTS/DURATIONS:
jobnr. mode duration  R 1  R 2  N 1  N 2  N 3
------------------------------------------------------------------------
  1      1     0       0    0    0    0    0
  2      1     1       8    9    4    9    7
         2     4       8    7    3    8    4
         3     9       8    1    2    8    3
  3      1     3       9    7    3    8    9
         2     4       8    6    2    6    9
         3     7       7    2    2    5    6
  4      1     4       4    2    3    5    9
         2     6       3    2    3    5    8
         3     8       3    1    3    5    7
  5      1     3       5   10    8    6    3
         2    10       4    9    3    4    2
         3    10       4    9    3    5    1
  6      1     2       6    6    6    4    9
         2     2       8    4    5    3    5
         3     7       6    4    4    2    2
  7      1     4       7    6    5    8    4
         2     4       7    6    4    5    5
         3     5       7    4    3    4    4
  8      1     1       8    9    8    4    6
         2     3       7    7    7    4    5
         3     7       7    5    2    3    5
  9      1     5       6    2    8    6    4
         2     6       6    2    8    4    3
         3    10       5    2    4    4    3
 10      1     7       5    8   10    5    9
         2     8       5    6   10    3    6
         3     9       4    5   10    1    4
 11      1     2       6    6   10    6    7
         2     2       6    7    9    7    7
         3     3       6    3    5    5    2
 12      1     1       8    7    8    4    9
         2     1      10    6    7    4    9
         3     2       5    3    6    3    5
 13      1     5       5    4    7    8    6
         2     9       4    3    7    8    4
         3    10       3    3    5    8    2
 14      1     5      10   10    9    7    7
         2     9      10   10    6    6    7
         3     9      10   10    7    6    5
 15      1     4       8    5    7    7    8
         2     5       5    3    6    6    4
         3    10       3    2    3    6    3
 16      1     1       9    8    3    4    7
         2     3       8    7    2    4    5
         3     7       6    3    2    4    3
 17      1     2       8    6    6    6    7
         2     3       6    4    3    1    5
         3     3       6    5    2    4    2
 18      1     0       0    0    0    0    0
************************************************************************
RESOURCEAVAILABILITIES:
  R 1  R 2  N 1  N 2  N 3
   15   15   84   84   85
************************************************************************
